\* Perla *\
Maximize
Utilidades_Totales: 4000 C_blanco + 3500 C_oscuro
Subject To
Azucar: 18 C_blanco + 21 C_oscuro <= 20000
Demanda: C_blanco <= 315
Manteca_cacao: 22 C_blanco + 6 C_oscuro <= 12000
End
